MARKOV
209
2 2 2 2 2 2 2 2 2 2 2 2 2 4 2 2 2 2 2 2 2 2 4 2 4 4 4 4 2 2 2 2 2 2 4 4 2 2 2 2 2 2 2 2 2 2 4 4 4 4 2 2 2 2 2 4 4 4 4 2 4 4 4 2 2 2 4 4 4 4 4 4 2 2 2 2 2 2 2 2 2 2 2 4 4 2 2 2 2 2 2 4 4 2 2 2 2 2 2 2 2 2 2 2 2 2 4 4 4 4 2 4 4 4 4 4 4 4 4 4 4 4 2 2 2 2 2 2 2 2 2 2 4 4 4 4 4 4 4 4 2 2 2 2 4 4 2 2 2 4 4 2 2 2 2 4 4 4 4 4 4 4 4 4 4 2 2 4 4 4 4 4 4 4 4 4 4 4 4 4 4 4 4 4 4 4 4 4 4 4 4 4 4 4 2 4 4 4 2 4 2 2 2 2 4 4 4 4 4
411
3 110 115 121
2 198 197
2 50 49
2 182 181
2 35 32
3 22 29 35
2 188 189
2 178 177
2 180 179
2 150 149
2 142 139
2 33 32
2 148 144
2 198 205
2 37 36
2 144 145
3 114 108 119
2 77 76
2 136 137
2 188 190
2 113 112
2 110 109
2 184 183
2 168 167
2 86 85
2 159 167
2 49 48
2 35 33
2 142 148
2 147 144
2 151 159
3 116 107 113
2 136 134
2 168 170
2 160 162
2 110 111
2 156 155
2 116 119
2 143 147
2 51 49
2 92 91
2 22 23
2 48 42
3 187 192 185
2 143 142
2 143 148
2 17 16
2 29 28
2 141 136
2 140 136
2 162 168
3 106 117 113
2 163 168
2 136 139
2 67 66
2 141 140
2 52 48
2 195 194
2 117 116
2 152 160
2 39 38
2 159 168
3 114 109 118
2 152 149
2 198 208
2 71 70
2 136 135
2 48 43
2 151 156
2 142 145
2 88 87
2 164 168
2 201 200
2 151 155
2 35 34
2 138 137
3 106 116 113
2 151 158
3 115 111 120
2 19 18
2 45 44
2 93 94
2 141 137
2 140 137
3 22 28 34
2 192 191
2 168 169
2 58 57
2 110 108
2 117 119
2 174 173
2 158 163
2 22 25
2 166 165
2 154 153
2 158 164
3 187 191 185
3 22 29 34
2 114 115
2 143 139
2 102 101
3 116 107 112
2 54 53
2 156 157
2 152 161
2 95 96
2 52 51
2 50 48
2 176 175
2 22 21
3 117 107 112
2 148 147
2 79 78
2 72 73
2 106 107
3 114 109 119
2 138 139
2 13 12
2 106 109
2 142 144
2 121 120
2 34 32
3 115 111 121
2 119 118
2 3 2
3 22 28 35
2 22 24
2 142 138
2 11 10
2 62 61
3 195 188 193
3 106 117 112
2 207 206
2 162 157
2 152 147
2 167 170
2 123 122
2 83 84
2 129 128
2 49 42
2 22 20
2 143 144
2 158 159
2 152 157
2 152 150
2 158 162
3 106 116 112
2 7 6
3 187 191 186
2 152 148
2 34 33
2 47 46
2 143 138
2 51 48
2 15 14
2 142 147
2 125 124
2 162 167
2 109 108
2 43 42
3 110 115 120
2 163 167
2 52 49
3 159 163 156
2 161 162
2 156 153
2 170 169
2 49 43
2 205 204
2 143 145
3 159 163 155
2 164 167
3 187 192 186
2 186 185
3 159 164 156
3 114 108 118
2 41 40
3 117 107 113
2 127 126
3 159 164 155
2 69 68
2 56 55
2 198 204
2 5 4
2 100 99
2 31 30
2 203 202
2 190 189
2 197 196
2 198 199
2 161 160
2 106 108
2 9 8
2 198 201
2 164 163
2 27 26
2 167 169
2 25 24
2 172 171
2 116 118
2 60 59
2 135 134
1 0
1 1
1 2
1 3
1 4
1 5
1 6
1 7
1 8
1 9
1 10
1 11
1 12
1 13
1 14
1 15
1 16
1 17
1 18
1 19
1 20
1 21
1 22
1 23
1 24
1 25
1 26
1 27
1 28
1 29
1 30
1 31
1 32
1 33
1 34
1 35
1 36
1 37
1 38
1 39
1 40
1 41
1 42
1 43
1 44
1 45
1 46
1 47
1 48
1 49
1 50
1 51
1 52
1 53
1 54
1 55
1 56
1 57
1 58
1 59
1 60
1 61
1 62
1 63
1 64
1 65
1 66
1 67
1 68
1 69
1 70
1 71
1 72
1 73
1 74
1 75
1 76
1 77
1 78
1 79
1 80
1 81
1 82
1 83
1 84
1 85
1 86
1 87
1 88
1 89
1 90
1 91
1 92
1 93
1 94
1 95
1 96
1 97
1 98
1 99
1 100
1 101
1 102
1 103
1 104
1 105
1 106
1 107
1 108
1 109
1 110
1 111
1 112
1 113
1 114
1 115
1 116
1 117
1 118
1 119
1 120
1 121
1 122
1 123
1 124
1 125
1 126
1 127
1 128
1 129
1 130
1 131
1 132
1 133
1 134
1 135
1 136
1 137
1 138
1 139
1 140
1 141
1 142
1 143
1 144
1 145
1 146
1 147
1 148
1 149
1 150
1 151
1 152
1 153
1 154
1 155
1 156
1 157
1 158
1 159
1 160
1 161
1 162
1 163
1 164
1 165
1 166
1 167
1 168
1 169
1 170
1 171
1 172
1 173
1 174
1 175
1 176
1 177
1 178
1 179
1 180
1 181
1 182
1 183
1 184
1 185
1 186
1 187
1 188
1 189
1 190
1 191
1 192
1 193
1 194
1 195
1 196
1 197
1 198
1 199
1 200
1 201
1 202
1 203
1 204
1 205
1 206
1 207
1 208
32
1.0
1.0
1.0
1.0
0.0001
1.0
1.0
1.0
1.0
1.0
1.0
1.0
1.0
1.0
1.0
1.0
1.0
1.0
1.0
1.0
1.0
1.0
1.0
1.0
1.0
1.0
1.0
1.0
1.0
1.0
1.0
1.0

8
0.0001
1.0
0.0001
1.0
1.0
1.0
1.0
1.0

8
1.0
0.0001
1.0
1.0
1.0
1.0
1.0
1.0

16
0.0001
1.0
1.0
1.0
1.0
0.0001
1.0
1.0
1.0
1.0
0.0001
1.0
1.0
1.0
1.0
1.0

8
1.0
1.0
0.0001
1.0
1.0
1.0
1.0
1.0

32
1.0
1.0
1.0
1.0
1.0
1.0
1.0
1.0
1.0
1.0
1.0
1.0
1.0
1.0
1.0
1.0
0.0001
1.0
1.0
1.0
1.0
1.0
1.0
1.0
1.0
1.0
1.0
1.0
1.0
1.0
1.0
1.0

16
0.0001
1.0
1.0
1.0
1.0
0.0001
1.0
1.0
1.0
1.0
0.0001
1.0
1.0
1.0
1.0
1.0

16
0.0001
1.0
1.0
1.0
1.0
0.0001
1.0
1.0
1.0
1.0
0.0001
1.0
1.0
1.0
1.0
1.0

16
0.0001
1.0
1.0
1.0
1.0
0.0001
1.0
1.0
1.0
1.0
0.0001
1.0
1.0
1.0
1.0
1.0

16
0.0001
1.0
1.0
1.0
1.0
0.0001
1.0
1.0
1.0
1.0
0.0001
1.0
1.0
1.0
1.0
1.0

8
1.0
0.0001
1.0
1.0
1.0
1.0
1.0
1.0

4
0.0001
1.0
1.0
1.0

8
1.0
0.0001
1.0
1.0
1.0
1.0
1.0
1.0

8
1.0
0.0001
1.0
1.0
1.0
1.0
1.0
1.0

4
0.0001
1.0
1.0
1.0

16
0.0001
1.0
1.0
1.0
1.0
0.0001
1.0
1.0
1.0
1.0
0.0001
1.0
1.0
1.0
1.0
1.0

64
1.0
1.0
1.0
1.0
1.0
1.0
1.0
1.0
1.0
1.0
1.0
1.0
1.0
1.0
1.0
1.0
1.0
1.0
1.0
1.0
1.0
1.0
1.0
1.0
0.0001
1.0
1.0
1.0
1.0
1.0
1.0
1.0
1.0
1.0
1.0
1.0
1.0
1.0
1.0
1.0
1.0
1.0
1.0
1.0
1.0
1.0
1.0
1.0
1.0
1.0
1.0
1.0
1.0
1.0
1.0
1.0
1.0
1.0
1.0
1.0
1.0
1.0
1.0
1.0

4
0.0001
1.0
1.0
1.0

16
0.0001
1.0
1.0
1.0
1.0
0.0001
1.0
1.0
1.0
1.0
0.0001
1.0
1.0
1.0
1.0
1.0

16
0.0001
1.0
1.0
1.0
1.0
0.0001
1.0
1.0
1.0
1.0
0.0001
1.0
1.0
1.0
1.0
1.0

16
0.0001
1.0
1.0
1.0
1.0
0.0001
1.0
1.0
1.0
1.0
0.0001
1.0
1.0
1.0
1.0
1.0

8
0.0001
1.0
0.0001
1.0
1.0
1.0
1.0
1.0

16
0.0001
1.0
1.0
1.0
1.0
0.0001
1.0
1.0
1.0
1.0
0.0001
1.0
1.0
1.0
1.0
1.0

16
0.0001
1.0
1.0
1.0
1.0
0.0001
1.0
1.0
1.0
1.0
0.0001
1.0
1.0
1.0
1.0
1.0

4
0.0001
1.0
1.0
1.0

16
1.0
1.0
1.0
1.0
1.0
1.0
1.0
1.0
0.0001
1.0
1.0
1.0
1.0
1.0
1.0
1.0

16
0.0001
1.0
1.0
1.0
1.0
0.0001
1.0
1.0
1.0
1.0
0.0001
1.0
1.0
1.0
1.0
1.0

8
1.0
1.0
0.0001
1.0
1.0
1.0
1.0
1.0

4
0.0001
1.0
1.0
1.0

8
1.0
0.0001
1.0
1.0
1.0
1.0
1.0
1.0

8
0.0001
1.0
1.0
1.0
1.0
1.0
1.0
1.0

64
1.0
1.0
1.0
1.0
1.0
1.0
1.0
1.0
1.0
0.0001
1.0
1.0
1.0
1.0
1.0
1.0
1.0
1.0
1.0
1.0
1.0
1.0
1.0
1.0
1.0
1.0
1.0
1.0
1.0
1.0
1.0
1.0
1.0
1.0
1.0
1.0
1.0
1.0
1.0
1.0
1.0
1.0
1.0
1.0
1.0
1.0
1.0
1.0
1.0
1.0
1.0
1.0
1.0
1.0
1.0
1.0
1.0
1.0
1.0
1.0
1.0
1.0
1.0
1.0

16
0.0001
1.0
1.0
1.0
1.0
0.0001
1.0
1.0
1.0
1.0
0.0001
1.0
1.0
1.0
1.0
1.0

16
0.0001
1.0
1.0
1.0
1.0
1.0
1.0
1.0
1.0
1.0
1.0
1.0
1.0
1.0
1.0
1.0

16
1.0
1.0
1.0
1.0
1.0
0.0001
1.0
1.0
1.0
1.0
1.0
1.0
1.0
1.0
1.0
1.0

8
0.0001
1.0
0.0001
1.0
1.0
1.0
1.0
1.0

16
0.0001
1.0
1.0
1.0
1.0
0.0001
1.0
1.0
1.0
1.0
0.0001
1.0
1.0
1.0
1.0
1.0

16
0.0001
1.0
1.0
1.0
1.0
0.0001
1.0
1.0
1.0
1.0
0.0001
1.0
1.0
1.0
1.0
1.0

4
0.0001
1.0
1.0
1.0

8
1.0
1.0
0.0001
1.0
1.0
1.0
1.0
1.0

16
0.0001
1.0
1.0
1.0
1.0
0.0001
1.0
1.0
1.0
1.0
0.0001
1.0
1.0
1.0
1.0
1.0

8
1.0
1.0
0.0001
1.0
1.0
1.0
1.0
1.0

8
0.0001
1.0
1.0
1.0
1.0
1.0
1.0
1.0

64
1.0
1.0
1.0
1.0
1.0
1.0
1.0
1.0
1.0
1.0
1.0
1.0
1.0
1.0
1.0
1.0
1.0
1.0
0.0001
1.0
1.0
1.0
1.0
1.0
1.0
1.0
1.0
1.0
1.0
1.0
1.0
1.0
1.0
1.0
1.0
1.0
1.0
1.0
1.0
1.0
1.0
1.0
1.0
1.0
1.0
1.0
1.0
1.0
1.0
1.0
1.0
1.0
1.0
1.0
1.0
1.0
1.0
1.0
1.0
1.0
1.0
1.0
1.0
1.0

4
0.0001
1.0
1.0
1.0

4
0.0001
1.0
1.0
1.0

4
0.0001
1.0
1.0
1.0

4
0.0001
1.0
1.0
1.0

8
1.0
0.0001
1.0
1.0
1.0
1.0
1.0
1.0

8
1.0
0.0001
1.0
1.0
1.0
1.0
1.0
1.0

16
1.0
1.0
1.0
1.0
0.0001
1.0
1.0
1.0
1.0
1.0
1.0
1.0
1.0
1.0
1.0
1.0

64
1.0
1.0
1.0
1.0
1.0
1.0
1.0
1.0
1.0
1.0
1.0
1.0
1.0
1.0
1.0
1.0
1.0
1.0
1.0
1.0
1.0
1.0
1.0
1.0
1.0
1.0
1.0
1.0
1.0
1.0
1.0
1.0
1.0
0.0001
1.0
1.0
1.0
1.0
1.0
1.0
1.0
1.0
1.0
1.0
1.0
1.0
1.0
1.0
1.0
1.0
1.0
1.0
1.0
1.0
1.0
1.0
1.0
1.0
1.0
1.0
1.0
1.0
1.0
1.0

16
1.0
1.0
1.0
1.0
0.0001
1.0
1.0
1.0
1.0
1.0
1.0
1.0
1.0
1.0
1.0
1.0

16
0.0001
1.0
1.0
1.0
1.0
0.0001
1.0
1.0
1.0
1.0
0.0001
1.0
1.0
1.0
1.0
1.0

16
0.0001
1.0
1.0
1.0
1.0
0.0001
1.0
1.0
1.0
1.0
0.0001
1.0
1.0
1.0
1.0
1.0

4
0.0001
1.0
1.0
1.0

8
1.0
1.0
0.0001
1.0
1.0
1.0
1.0
1.0

8
1.0
1.0
0.0001
1.0
1.0
1.0
1.0
1.0

16
0.0001
1.0
1.0
1.0
1.0
0.0001
1.0
1.0
1.0
1.0
0.0001
1.0
1.0
1.0
1.0
1.0

8
0.0001
1.0
1.0
1.0
1.0
1.0
1.0
1.0

4
0.0001
1.0
1.0
1.0

16
1.0
1.0
1.0
1.0
1.0
1.0
1.0
1.0
0.0001
1.0
1.0
1.0
1.0
1.0
1.0
1.0

64
1.0
1.0
1.0
1.0
1.0
1.0
1.0
1.0
1.0
1.0
1.0
1.0
1.0
1.0
1.0
1.0
1.0
1.0
1.0
1.0
1.0
1.0
1.0
1.0
0.0001
1.0
1.0
1.0
1.0
1.0
1.0
1.0
1.0
1.0
1.0
1.0
1.0
1.0
1.0
1.0
1.0
1.0
1.0
1.0
1.0
1.0
1.0
1.0
1.0
1.0
1.0
1.0
1.0
1.0
1.0
1.0
1.0
1.0
1.0
1.0
1.0
1.0
1.0
1.0

8
1.0
0.0001
1.0
1.0
1.0
1.0
1.0
1.0

8
0.0001
1.0
1.0
1.0
1.0
1.0
1.0
1.0

16
0.0001
1.0
1.0
1.0
1.0
0.0001
1.0
1.0
1.0
1.0
0.0001
1.0
1.0
1.0
1.0
1.0

16
0.0001
1.0
1.0
1.0
1.0
0.0001
1.0
1.0
1.0
1.0
0.0001
1.0
1.0
1.0
1.0
1.0

8
0.0001
1.0
1.0
1.0
1.0
1.0
1.0
1.0

8
1.0
0.0001
1.0
1.0
1.0
1.0
1.0
1.0

8
1.0
0.0001
1.0
1.0
1.0
1.0
1.0
1.0

4
0.0001
1.0
1.0
1.0

16
1.0
1.0
1.0
1.0
0.0001
1.0
1.0
1.0
1.0
1.0
1.0
1.0
1.0
1.0
1.0
1.0

4
0.0001
1.0
1.0
1.0

8
1.0
0.0001
1.0
1.0
1.0
1.0
1.0
1.0

16
0.0001
1.0
1.0
1.0
1.0
0.0001
1.0
1.0
1.0
1.0
0.0001
1.0
1.0
1.0
1.0
1.0

16
0.0001
1.0
1.0
1.0
1.0
0.0001
1.0
1.0
1.0
1.0
0.0001
1.0
1.0
1.0
1.0
1.0

64
1.0
1.0
1.0
1.0
1.0
1.0
1.0
1.0
1.0
1.0
1.0
1.0
1.0
1.0
1.0
1.0
1.0
1.0
1.0
1.0
1.0
1.0
1.0
1.0
1.0
1.0
1.0
1.0
1.0
1.0
1.0
1.0
1.0
0.0001
1.0
1.0
1.0
1.0
1.0
1.0
1.0
1.0
1.0
1.0
1.0
1.0
1.0
1.0
1.0
1.0
1.0
1.0
1.0
1.0
1.0
1.0
1.0
1.0
1.0
1.0
1.0
1.0
1.0
1.0

8
0.0001
1.0
1.0
1.0
1.0
1.0
1.0
1.0

64
1.0
1.0
1.0
1.0
1.0
1.0
1.0
1.0
1.0
1.0
1.0
1.0
1.0
1.0
1.0
1.0
1.0
1.0
1.0
1.0
1.0
1.0
1.0
1.0
0.0001
1.0
1.0
1.0
1.0
1.0
1.0
1.0
1.0
1.0
1.0
1.0
1.0
1.0
1.0
1.0
1.0
1.0
1.0
1.0
1.0
1.0
1.0
1.0
1.0
1.0
1.0
1.0
1.0
1.0
1.0
1.0
1.0
1.0
1.0
1.0
1.0
1.0
1.0
1.0

4
0.0001
1.0
1.0
1.0

4
0.0001
1.0
1.0
1.0

4
0.0001
1.0
1.0
1.0

8
1.0
0.0001
1.0
1.0
1.0
1.0
1.0
1.0

8
1.0
0.0001
1.0
1.0
1.0
1.0
1.0
1.0

32
1.0
1.0
1.0
1.0
1.0
1.0
1.0
1.0
1.0
1.0
1.0
1.0
1.0
1.0
1.0
1.0
0.0001
1.0
1.0
1.0
1.0
1.0
1.0
1.0
1.0
1.0
1.0
1.0
1.0
1.0
1.0
1.0

16
0.0001
1.0
1.0
1.0
1.0
0.0001
1.0
1.0
1.0
1.0
0.0001
1.0
1.0
1.0
1.0
1.0

16
0.0001
1.0
1.0
1.0
1.0
1.0
1.0
1.0
1.0
1.0
1.0
1.0
1.0
1.0
1.0
1.0

16
0.0001
1.0
1.0
1.0
1.0
0.0001
1.0
1.0
1.0
1.0
0.0001
1.0
1.0
1.0
1.0
1.0

8
0.0001
1.0
0.0001
1.0
1.0
1.0
1.0
1.0

16
0.0001
1.0
1.0
1.0
1.0
0.0001
1.0
1.0
1.0
1.0
0.0001
1.0
1.0
1.0
1.0
1.0

16
0.0001
1.0
1.0
1.0
1.0
0.0001
1.0
1.0
1.0
1.0
0.0001
1.0
1.0
1.0
1.0
1.0

16
1.0
1.0
1.0
1.0
1.0
1.0
1.0
1.0
1.0
0.0001
1.0
1.0
1.0
1.0
1.0
1.0

16
0.0001
1.0
1.0
1.0
1.0
0.0001
1.0
1.0
1.0
1.0
0.0001
1.0
1.0
1.0
1.0
1.0

4
0.0001
1.0
1.0
1.0

4
0.0001
1.0
1.0
1.0

16
1.0
1.0
1.0
1.0
1.0
1.0
1.0
1.0
1.0
0.0001
1.0
1.0
1.0
1.0
1.0
1.0

64
1.0
1.0
1.0
1.0
1.0
1.0
1.0
1.0
1.0
1.0
1.0
1.0
1.0
1.0
1.0
1.0
1.0
1.0
0.0001
1.0
1.0
1.0
1.0
1.0
1.0
1.0
1.0
1.0
1.0
1.0
1.0
1.0
1.0
1.0
1.0
1.0
1.0
1.0
1.0
1.0
1.0
1.0
1.0
1.0
1.0
1.0
1.0
1.0
1.0
1.0
1.0
1.0
1.0
1.0
1.0
1.0
1.0
1.0
1.0
1.0
1.0
1.0
1.0
1.0

32
1.0
1.0
1.0
1.0
1.0
1.0
1.0
1.0
1.0
1.0
1.0
1.0
1.0
1.0
1.0
1.0
0.0001
1.0
1.0
1.0
1.0
1.0
1.0
1.0
1.0
1.0
1.0
1.0
1.0
1.0
1.0
1.0

16
0.0001
1.0
1.0
1.0
1.0
0.0001
1.0
1.0
1.0
1.0
0.0001
1.0
1.0
1.0
1.0
1.0

8
1.0
0.0001
1.0
1.0
1.0
1.0
1.0
1.0

4
0.0001
1.0
1.0
1.0

64
1.0
1.0
1.0
1.0
1.0
1.0
1.0
1.0
1.0
0.0001
1.0
1.0
1.0
1.0
1.0
1.0
1.0
1.0
1.0
1.0
1.0
1.0
1.0
1.0
1.0
1.0
1.0
1.0
1.0
1.0
1.0
1.0
1.0
1.0
1.0
1.0
1.0
1.0
1.0
1.0
1.0
1.0
1.0
1.0
1.0
1.0
1.0
1.0
1.0
1.0
1.0
1.0
1.0
1.0
1.0
1.0
1.0
1.0
1.0
1.0
1.0
1.0
1.0
1.0

4
0.0001
1.0
1.0
1.0

16
0.0001
1.0
1.0
1.0
1.0
0.0001
1.0
1.0
1.0
1.0
0.0001
1.0
1.0
1.0
1.0
1.0

8
0.0001
1.0
1.0
1.0
1.0
1.0
1.0
1.0

4
0.0001
1.0
1.0
1.0

4
0.0001
1.0
1.0
1.0

8
1.0
0.0001
1.0
1.0
1.0
1.0
1.0
1.0

16
0.0001
1.0
1.0
1.0
1.0
0.0001
1.0
1.0
1.0
1.0
0.0001
1.0
1.0
1.0
1.0
1.0

8
1.0
1.0
0.0001
1.0
1.0
1.0
1.0
1.0

64
1.0
1.0
1.0
1.0
1.0
1.0
1.0
1.0
1.0
0.0001
1.0
1.0
1.0
1.0
1.0
1.0
1.0
1.0
1.0
1.0
1.0
1.0
1.0
1.0
1.0
1.0
1.0
1.0
1.0
1.0
1.0
1.0
1.0
1.0
1.0
1.0
1.0
1.0
1.0
1.0
1.0
1.0
1.0
1.0
1.0
1.0
1.0
1.0
1.0
1.0
1.0
1.0
1.0
1.0
1.0
1.0
1.0
1.0
1.0
1.0
1.0
1.0
1.0
1.0

4
0.0001
1.0
1.0
1.0

4
0.0001
1.0
1.0
1.0

4
0.0001
1.0
1.0
1.0

16
0.0001
1.0
1.0
1.0
1.0
0.0001
1.0
1.0
1.0
1.0
0.0001
1.0
1.0
1.0
1.0
1.0

64
1.0
1.0
1.0
1.0
1.0
1.0
1.0
1.0
1.0
1.0
1.0
1.0
1.0
1.0
1.0
1.0
1.0
1.0
1.0
1.0
1.0
1.0
1.0
1.0
0.0001
1.0
1.0
1.0
1.0
1.0
1.0
1.0
1.0
1.0
1.0
1.0
1.0
1.0
1.0
1.0
1.0
1.0
1.0
1.0
1.0
1.0
1.0
1.0
1.0
1.0
1.0
1.0
1.0
1.0
1.0
1.0
1.0
1.0
1.0
1.0
1.0
1.0
1.0
1.0

16
0.0001
1.0
1.0
1.0
1.0
0.0001
1.0
1.0
1.0
1.0
0.0001
1.0
1.0
1.0
1.0
1.0

8
1.0
1.0
0.0001
1.0
1.0
1.0
1.0
1.0

16
0.0001
1.0
1.0
1.0
1.0
0.0001
1.0
1.0
1.0
1.0
0.0001
1.0
1.0
1.0
1.0
1.0

8
1.0
0.0001
1.0
1.0
1.0
1.0
1.0
1.0

16
0.0001
1.0
1.0
1.0
1.0
0.0001
1.0
1.0
1.0
1.0
0.0001
1.0
1.0
1.0
1.0
1.0

8
1.0
1.0
0.0001
1.0
1.0
1.0
1.0
1.0

64
1.0
1.0
1.0
1.0
1.0
1.0
1.0
1.0
1.0
1.0
1.0
1.0
1.0
1.0
1.0
1.0
1.0
1.0
1.0
1.0
1.0
1.0
1.0
1.0
0.0001
1.0
1.0
1.0
1.0
1.0
1.0
1.0
1.0
1.0
1.0
1.0
1.0
1.0
1.0
1.0
1.0
1.0
1.0
1.0
1.0
1.0
1.0
1.0
1.0
1.0
1.0
1.0
1.0
1.0
1.0
1.0
1.0
1.0
1.0
1.0
1.0
1.0
1.0
1.0

16
0.0001
1.0
1.0
1.0
1.0
0.0001
1.0
1.0
1.0
1.0
0.0001
1.0
1.0
1.0
1.0
1.0

4
0.0001
1.0
1.0
1.0

32
1.0
1.0
1.0
1.0
1.0
1.0
1.0
1.0
1.0
1.0
1.0
1.0
1.0
1.0
1.0
1.0
0.0001
1.0
1.0
1.0
1.0
1.0
1.0
1.0
1.0
1.0
1.0
1.0
1.0
1.0
1.0
1.0

16
0.0001
1.0
1.0
1.0
1.0
0.0001
1.0
1.0
1.0
1.0
0.0001
1.0
1.0
1.0
1.0
1.0

8
1.0
0.0001
1.0
1.0
1.0
1.0
1.0
1.0

4
0.0001
1.0
1.0
1.0

16
0.0001
1.0
1.0
1.0
1.0
0.0001
1.0
1.0
1.0
1.0
0.0001
1.0
1.0
1.0
1.0
1.0

64
1.0
1.0
1.0
1.0
1.0
1.0
1.0
1.0
1.0
0.0001
1.0
1.0
1.0
1.0
1.0
1.0
1.0
1.0
1.0
1.0
1.0
1.0
1.0
1.0
1.0
1.0
1.0
1.0
1.0
1.0
1.0
1.0
1.0
1.0
1.0
1.0
1.0
1.0
1.0
1.0
1.0
1.0
1.0
1.0
1.0
1.0
1.0
1.0
1.0
1.0
1.0
1.0
1.0
1.0
1.0
1.0
1.0
1.0
1.0
1.0
1.0
1.0
1.0
1.0

64
1.0
1.0
1.0
1.0
1.0
1.0
1.0
1.0
1.0
1.0
1.0
1.0
1.0
1.0
1.0
1.0
1.0
1.0
1.0
1.0
1.0
1.0
1.0
1.0
1.0
1.0
1.0
1.0
1.0
1.0
1.0
1.0
1.0
0.0001
1.0
1.0
1.0
1.0
1.0
1.0
1.0
1.0
1.0
1.0
1.0
1.0
1.0
1.0
1.0
1.0
1.0
1.0
1.0
1.0
1.0
1.0
1.0
1.0
1.0
1.0
1.0
1.0
1.0
1.0

16
0.0001
1.0
1.0
1.0
1.0
0.0001
1.0
1.0
1.0
1.0
0.0001
1.0
1.0
1.0
1.0
1.0

16
1.0
1.0
1.0
1.0
1.0
1.0
0.0001
1.0
1.0
1.0
1.0
1.0
1.0
1.0
1.0
1.0

4
0.0001
1.0
1.0
1.0

16
0.0001
1.0
1.0
1.0
1.0
1.0
1.0
1.0
1.0
1.0
1.0
1.0
1.0
1.0
1.0
1.0

4
0.0001
1.0
1.0
1.0

16
0.0001
1.0
1.0
1.0
1.0
0.0001
1.0
1.0
1.0
1.0
0.0001
1.0
1.0
1.0
1.0
1.0

4
0.0001
1.0
1.0
1.0

8
0.0001
1.0
1.0
1.0
1.0
1.0
1.0
1.0

8
0.0001
1.0
1.0
1.0
0.0001
1.0
1.0
1.0

8
1.0
0.0001
1.0
1.0
1.0
1.0
1.0
1.0

16
0.0001
1.0
1.0
1.0
1.0
0.0001
1.0
1.0
1.0
1.0
0.0001
1.0
1.0
1.0
1.0
1.0

8
1.0
0.0001
1.0
1.0
1.0
1.0
1.0
1.0

8
1.0
0.0001
1.0
1.0
1.0
1.0
1.0
1.0

16
1.0
1.0
1.0
1.0
1.0
1.0
1.0
1.0
1.0
0.0001
1.0
1.0
1.0
1.0
1.0
1.0

64
1.0
1.0
1.0
1.0
1.0
1.0
1.0
1.0
1.0
1.0
1.0
1.0
1.0
1.0
1.0
1.0
1.0
1.0
1.0
1.0
1.0
1.0
1.0
1.0
1.0
1.0
1.0
1.0
1.0
1.0
1.0
1.0
1.0
0.0001
1.0
1.0
1.0
1.0
1.0
1.0
1.0
1.0
1.0
1.0
1.0
1.0
1.0
1.0
1.0
1.0
1.0
1.0
1.0
1.0
1.0
1.0
1.0
1.0
1.0
1.0
1.0
1.0
1.0
1.0

4
0.0001
1.0
1.0
1.0

64
1.0
1.0
1.0
1.0
1.0
1.0
1.0
1.0
1.0
1.0
1.0
1.0
1.0
1.0
1.0
1.0
1.0
1.0
0.0001
1.0
1.0
1.0
1.0
1.0
1.0
1.0
1.0
1.0
1.0
1.0
1.0
1.0
1.0
1.0
1.0
1.0
1.0
1.0
1.0
1.0
1.0
1.0
1.0
1.0
1.0
1.0
1.0
1.0
1.0
1.0
1.0
1.0
1.0
1.0
1.0
1.0
1.0
1.0
1.0
1.0
1.0
1.0
1.0
1.0

4
0.0001
1.0
1.0
1.0

8
1.0
1.0
0.0001
1.0
1.0
1.0
1.0
1.0

16
0.0001
1.0
1.0
1.0
1.0
0.0001
1.0
1.0
1.0
1.0
0.0001
1.0
1.0
1.0
1.0
1.0

8
1.0
0.0001
1.0
1.0
1.0
1.0
1.0
1.0

8
1.0
1.0
0.0001
1.0
1.0
1.0
1.0
1.0

4
0.0001
1.0
1.0
1.0

4
0.0001
1.0
1.0
1.0

4
0.0001
1.0
1.0
1.0

16
1.0
1.0
1.0
1.0
0.0001
1.0
1.0
1.0
1.0
1.0
1.0
1.0
1.0
1.0
1.0
1.0

16
0.0001
1.0
1.0
1.0
1.0
0.0001
1.0
1.0
1.0
1.0
0.0001
1.0
1.0
1.0
1.0
1.0

4
0.0001
1.0
1.0
1.0

32
1.0
1.0
1.0
1.0
0.0001
1.0
1.0
1.0
1.0
1.0
1.0
1.0
1.0
1.0
1.0
1.0
1.0
1.0
1.0
1.0
1.0
1.0
1.0
1.0
1.0
1.0
1.0
1.0
1.0
1.0
1.0
1.0

16
1.0
1.0
1.0
1.0
0.0001
1.0
1.0
1.0
1.0
1.0
1.0
1.0
1.0
1.0
1.0
1.0

8
1.0
1.0
0.0001
1.0
1.0
1.0
1.0
1.0

64
1.0
1.0
1.0
1.0
1.0
1.0
1.0
1.0
1.0
1.0
1.0
1.0
1.0
1.0
1.0
1.0
1.0
1.0
0.0001
1.0
1.0
1.0
1.0
1.0
1.0
1.0
1.0
1.0
1.0
1.0
1.0
1.0
1.0
1.0
1.0
1.0
1.0
1.0
1.0
1.0
1.0
1.0
1.0
1.0
1.0
1.0
1.0
1.0
1.0
1.0
1.0
1.0
1.0
1.0
1.0
1.0
1.0
1.0
1.0
1.0
1.0
1.0
1.0
1.0

16
1.0
1.0
1.0
1.0
1.0
0.0001
1.0
1.0
1.0
1.0
1.0
1.0
1.0
1.0
1.0
1.0

8
1.0
1.0
0.0001
1.0
1.0
1.0
1.0
1.0

16
0.0001
1.0
1.0
1.0
1.0
0.0001
1.0
1.0
1.0
1.0
0.0001
1.0
1.0
1.0
1.0
1.0

8
0.0001
1.0
1.0
1.0
1.0
1.0
1.0
1.0

16
0.0001
1.0
1.0
1.0
1.0
0.0001
1.0
1.0
1.0
1.0
0.0001
1.0
1.0
1.0
1.0
1.0

8
1.0
0.0001
1.0
1.0
1.0
1.0
1.0
1.0

64
1.0
1.0
1.0
1.0
1.0
1.0
1.0
1.0
1.0
1.0
1.0
1.0
1.0
1.0
1.0
1.0
1.0
1.0
0.0001
1.0
1.0
1.0
1.0
1.0
1.0
1.0
1.0
1.0
1.0
1.0
1.0
1.0
1.0
1.0
1.0
1.0
1.0
1.0
1.0
1.0
1.0
1.0
1.0
1.0
1.0
1.0
1.0
1.0
1.0
1.0
1.0
1.0
1.0
1.0
1.0
1.0
1.0
1.0
1.0
1.0
1.0
1.0
1.0
1.0

16
1.0
1.0
1.0
1.0
0.0001
1.0
1.0
1.0
1.0
1.0
1.0
1.0
1.0
1.0
1.0
1.0

64
1.0
1.0
1.0
1.0
1.0
1.0
1.0
1.0
1.0
1.0
1.0
1.0
1.0
1.0
1.0
1.0
1.0
1.0
0.0001
1.0
1.0
1.0
1.0
1.0
1.0
1.0
1.0
1.0
1.0
1.0
1.0
1.0
1.0
1.0
1.0
1.0
1.0
1.0
1.0
1.0
1.0
1.0
1.0
1.0
1.0
1.0
1.0
1.0
1.0
1.0
1.0
1.0
1.0
1.0
1.0
1.0
1.0
1.0
1.0
1.0
1.0
1.0
1.0
1.0

16
0.0001
1.0
1.0
1.0
1.0
0.0001
1.0
1.0
1.0
1.0
0.0001
1.0
1.0
1.0
1.0
1.0

64
1.0
1.0
1.0
1.0
1.0
1.0
1.0
1.0
1.0
1.0
1.0
1.0
1.0
1.0
1.0
1.0
1.0
1.0
0.0001
1.0
1.0
1.0
1.0
1.0
1.0
1.0
1.0
1.0
1.0
1.0
1.0
1.0
1.0
1.0
1.0
1.0
1.0
1.0
1.0
1.0
1.0
1.0
1.0
1.0
1.0
1.0
1.0
1.0
1.0
1.0
1.0
1.0
1.0
1.0
1.0
1.0
1.0
1.0
1.0
1.0
1.0
1.0
1.0
1.0

64
1.0
1.0
1.0
1.0
1.0
1.0
1.0
1.0
1.0
1.0
1.0
1.0
1.0
1.0
1.0
1.0
1.0
1.0
1.0
1.0
1.0
1.0
1.0
1.0
0.0001
1.0
1.0
1.0
1.0
1.0
1.0
1.0
1.0
1.0
1.0
1.0
1.0
1.0
1.0
1.0
1.0
1.0
1.0
1.0
1.0
1.0
1.0
1.0
1.0
1.0
1.0
1.0
1.0
1.0
1.0
1.0
1.0
1.0
1.0
1.0
1.0
1.0
1.0
1.0

4
0.0001
1.0
1.0
1.0

64
1.0
1.0
1.0
1.0
1.0
1.0
1.0
1.0
1.0
0.0001
1.0
1.0
1.0
1.0
1.0
1.0
1.0
1.0
1.0
1.0
1.0
1.0
1.0
1.0
1.0
1.0
1.0
1.0
1.0
1.0
1.0
1.0
1.0
1.0
1.0
1.0
1.0
1.0
1.0
1.0
1.0
1.0
1.0
1.0
1.0
1.0
1.0
1.0
1.0
1.0
1.0
1.0
1.0
1.0
1.0
1.0
1.0
1.0
1.0
1.0
1.0
1.0
1.0
1.0

4
0.0001
1.0
1.0
1.0

64
1.0
1.0
1.0
1.0
1.0
1.0
1.0
1.0
1.0
1.0
1.0
1.0
1.0
1.0
1.0
1.0
1.0
1.0
0.0001
1.0
1.0
1.0
1.0
1.0
1.0
1.0
1.0
1.0
1.0
1.0
1.0
1.0
1.0
1.0
1.0
1.0
1.0
1.0
1.0
1.0
1.0
1.0
1.0
1.0
1.0
1.0
1.0
1.0
1.0
1.0
1.0
1.0
1.0
1.0
1.0
1.0
1.0
1.0
1.0
1.0
1.0
1.0
1.0
1.0

16
0.0001
1.0
1.0
1.0
1.0
0.0001
1.0
1.0
1.0
1.0
0.0001
1.0
1.0
1.0
1.0
1.0

16
0.0001
1.0
1.0
1.0
1.0
0.0001
1.0
1.0
1.0
1.0
0.0001
1.0
1.0
1.0
1.0
1.0

8
1.0
0.0001
1.0
1.0
1.0
1.0
1.0
1.0

4
0.0001
1.0
1.0
1.0

4
0.0001
1.0
1.0
1.0

4
0.0001
1.0
1.0
1.0

4
0.0001
1.0
1.0
1.0

16
0.0001
1.0
1.0
1.0
1.0
0.0001
1.0
1.0
1.0
1.0
0.0001
1.0
1.0
1.0
1.0
1.0

16
0.0001
1.0
1.0
1.0
1.0
0.0001
1.0
1.0
1.0
1.0
0.0001
1.0
1.0
1.0
1.0
1.0

8
0.0001
1.0
0.0001
1.0
1.0
1.0
1.0
1.0

16
0.0001
1.0
1.0
1.0
1.0
0.0001
1.0
1.0
1.0
1.0
0.0001
1.0
1.0
1.0
1.0
1.0

16
0.0001
1.0
1.0
1.0
1.0
0.0001
1.0
1.0
1.0
1.0
0.0001
1.0
1.0
1.0
1.0
1.0

4
0.0001
1.0
1.0
1.0

4
0.0001
1.0
1.0
1.0

16
0.0001
1.0
1.0
1.0
1.0
0.0001
1.0
1.0
1.0
1.0
0.0001
1.0
1.0
1.0
1.0
1.0

16
0.0001
1.0
1.0
1.0
1.0
0.0001
1.0
1.0
1.0
1.0
0.0001
1.0
1.0
1.0
1.0
1.0

16
0.0001
1.0
1.0
1.0
1.0
1.0
1.0
1.0
1.0
1.0
1.0
1.0
1.0
1.0
1.0
1.0

16
0.0001
1.0
1.0
1.0
1.0
0.0001
1.0
1.0
1.0
1.0
0.0001
1.0
1.0
1.0
1.0
1.0

16
0.0001
1.0
1.0
1.0
1.0
0.0001
1.0
1.0
1.0
1.0
0.0001
1.0
1.0
1.0
1.0
1.0

16
0.0001
1.0
1.0
1.0
1.0
0.0001
1.0
1.0
1.0
1.0
0.0001
1.0
1.0
1.0
1.0
1.0

8
0.0001
1.0
1.0
1.0
0.0001
1.0
1.0
1.0

16
0.0001
1.0
1.0
1.0
1.0
0.0001
1.0
1.0
1.0
1.0
0.0001
1.0
1.0
1.0
1.0
1.0

2
1.0
0.901898061331

2
1.0
0.901898061331

2
1.0
0.901898061331

2
1.0
0.901898061331

2
1.0
0.901898061331

2
1.0
0.901898061331

2
1.0
0.901898061331

2
1.0
0.901898061331

2
1.0
0.901898061331

2
1.0
0.901898061331

2
1.0
0.901898061331

2
1.0
0.901898061331

2
1.0
0.999896751551

4
1.0
1.0
1.0
0.999793513763

2
1.0
0.901898061331

2
1.0
0.901898061331

2
1.0
0.901898061331

2
1.0
0.901898061331

2
1.0
0.813420113032

2
1.0
0.813420113032

2
1.0
0.813420113032

2
1.0
0.813420113032

4
1.0
1.0
1.0
0.813420113032

2
1.0
0.901898061331

4
1.0
1.0
1.0
0.813420113032

4
1.0
1.0
1.0
0.813420113032

4
1.0
1.0
1.0
0.813420113032

4
1.0
1.0
1.0
0.813420113032

2
1.0
0.901898061331

2
1.0
0.901898061331

2
1.0
0.813420113032

2
1.0
0.901898061331

2
1.0
0.813420113032

2
1.0
0.813420113032

4
1.0
1.0
1.0
0.999896751551

4
1.0
1.0
1.0
0.999896751551

2
1.0
0.813420113032

2
1.0
0.813420113032

2
1.0
0.813420113032

2
1.0
0.813420113032

2
1.0
0.813420113032

2
1.0
0.813420113032

2
1.0
0.813420113032

2
1.0
0.813420113032

2
1.0
0.813420113032

2
1.0
0.813420113032

4
1.0
1.0
1.0
0.813420113032

4
1.0
1.0
1.0
0.813420113032

4
1.0
1.0
1.0
0.813420113032

4
1.0
1.0
1.0
0.813420113032

2
1.0
0.813420113032

2
1.0
0.999896751551

2
1.0
0.999896751551

2
1.0
0.999896751551

2
1.0
0.999896751551

4
1.0
1.0
1.0
0.901898061331

4
1.0
1.0
1.0
0.901898061331

4
1.0
1.0
1.0
0.901898061331

4
1.0
1.0
1.0
0.901898061331

2
1.0
0.901898061331

4
1.0
1.0
1.0
0.901898061331

4
1.0
1.0
1.0
0.901898061331

4
1.0
1.0
1.0
0.901898061331

2
1.0
0.901898061331

2
1.0
0.901898061331

2
1.0
0.901898061331

4
1.0
1.0
1.0
0.999896751551

4
1.0
1.0
1.0
0.999896751551

4
1.0
1.0
1.0
0.999896751551

4
1.0
1.0
1.0
0.999896751551

4
1.0
1.0
1.0
0.999896751551

4
1.0
1.0
1.0
0.999896751551

2
1.0
0.901898061331

2
1.0
0.901898061331

2
1.0
0.901898061331

2
1.0
0.901898061331

2
1.0
0.999793513763

2
1.0
0.999793513763

2
1.0
0.999896751551

2
1.0
0.999896751551

2
1.0
0.999896751551

2
1.0
0.999793513763

2
1.0
0.999793513763

4
1.0
1.0
1.0
0.999896751551

4
1.0
1.0
1.0
0.999896751551

2
1.0
0.999793513763

2
1.0
0.999793513763

2
1.0
0.999793513763

2
1.0
0.999793513763

2
1.0
0.999793513763

2
1.0
0.999793513763

4
1.0
1.0
1.0
0.999896751551

4
1.0
1.0
1.0
0.999896751551

2
1.0
0.999793513763

2
1.0
0.999793513763

2
1.0
0.999483864347

2
1.0
0.999483864347

2
1.0
0.999896751551

2
1.0
0.999896751551

2
1.0
0.999793513763

2
1.0
0.999793513763

2
1.0
0.999896751551

2
1.0
0.999896751551

2
1.0
0.999483864347

2
1.0
0.999483864347

2
1.0
0.999896751551

4
1.0
1.0
1.0
0.999896751551

4
1.0
1.0
1.0
0.999896751551

4
1.0
1.0
1.0
0.999896751551

4
1.0
1.0
1.0
0.999896751551

2
1.0
0.999793513763

4
1.0
1.0
1.0
0.999896751551

4
1.0
1.0
1.0
0.999896751551

4
1.0
1.0
1.0
0.999896751551

4
1.0
1.0
1.0
0.999896751551

4
1.0
1.0
1.0
0.999896751551

4
1.0
1.0
1.0
0.999896751551

4
1.0
1.0
1.0
0.999896751551

4
1.0
1.0
1.0
0.999896751551

4
1.0
1.0
1.0
0.999896751551

4
1.0
1.0
1.0
0.999896751551

4
1.0
1.0
1.0
0.999896751551

2
1.0
0.999896751551

2
1.0
0.999896751551

2
1.0
0.999793513763

2
1.0
0.999793513763

2
1.0
0.999793513763

2
1.0
0.999793513763

2
1.0
0.999793513763

2
1.0
0.999793513763

2
1.0
0.999793513763

2
1.0
0.999793513763

4
1.0
1.0
1.0
0.999896751551

4
1.0
1.0
1.0
0.999896751551

4
1.0
1.0
1.0
0.999896751551

4
1.0
1.0
1.0
0.999896751551

4
1.0
1.0
1.0
0.999896751551

4
1.0
1.0
1.0
0.999896751551

4
1.0
1.0
1.0
0.999896751551

4
1.0
1.0
1.0
0.999896751551

2
1.0
0.999793513763

2
1.0
0.999793513763

2
1.0
0.999793513763

2
1.0
0.999793513763

4
1.0
1.0
1.0
0.999896751551

4
1.0
1.0
1.0
0.999896751551

2
1.0
0.999896751551

2
1.0
0.999793513763

2
1.0
0.999793513763

4
1.0
1.0
1.0
0.999896751551

4
1.0
1.0
1.0
0.999896751551

2
1.0
0.999793513763

2
1.0
0.999793513763

2
1.0
0.999896751551

2
1.0
0.999896751551

4
1.0
1.0
1.0
0.999896751551

4
1.0
1.0
1.0
0.999896751551

4
1.0
1.0
1.0
0.999896751551

4
1.0
1.0
1.0
0.999896751551

4
1.0
1.0
1.0
0.999896751551

4
1.0
1.0
1.0
0.999896751551

4
1.0
1.0
1.0
0.999896751551

4
1.0
1.0
1.0
0.999896751551

4
1.0
1.0
1.0
0.999896751551

4
1.0
1.0
1.0
0.999896751551

2
1.0
0.999896751551

2
1.0
0.999896751551

4
1.0
1.0
1.0
0.999896751551

4
1.0
1.0
1.0
0.999896751551

4
1.0
1.0
1.0
0.999896751551

4
1.0
1.0
1.0
0.999896751551

4
1.0
1.0
1.0
0.999896751551

4
1.0
1.0
1.0
0.999896751551

4
1.0
1.0
1.0
0.999896751551

4
1.0
1.0
1.0
0.999896751551

4
1.0
1.0
1.0
0.999896751551

4
1.0
1.0
1.0
0.999896751551

4
1.0
1.0
1.0
0.999896751551

4
1.0
1.0
1.0
0.999896751551

4
1.0
1.0
1.0
0.999896751551

4
1.0
1.0
1.0
0.999896751551

4
1.0
1.0
1.0
0.999896751551

4
1.0
1.0
1.0
0.999896751551

4
1.0
1.0
1.0
0.999896751551

4
1.0
1.0
1.0
0.999896751551

4
1.0
1.0
1.0
0.999896751551

4
1.0
1.0
1.0
0.999896751551

4
1.0
1.0
1.0
0.999896751551

4
1.0
1.0
1.0
0.999896751551

4
1.0
1.0
1.0
0.999896751551

4
1.0
1.0
1.0
0.999896751551

4
1.0
1.0
1.0
0.999896751551

4
1.0
1.0
1.0
0.999896751551

4
1.0
1.0
1.0
0.999896751551

2
1.0
0.999896751551

4
1.0
1.0
1.0
0.999896751551

4
1.0
1.0
1.0
0.999896751551

4
1.0
1.0
1.0
0.999896751551

2
1.0
0.999793513763

4
1.0
1.0
1.0
0.999896751551

2
1.0
0.999793513763

2
1.0
0.999793513763

2
1.0
0.999793513763

2
1.0
0.999793513763

4
1.0
1.0
1.0
0.999896751551

4
1.0
1.0
1.0
0.999896751551

4
1.0
1.0
1.0
0.999896751551

4
1.0
1.0
1.0
0.999896751551

4
1.0
1.0
1.0
0.999896751551

